certificates/rado_a5_c128_N26.cnf
c Rad2 upper bound instance: x1 + 5*x2 - x3 = 128, interval [1,26]
p cnf 26 176
1 3 26 0
-1 -3 -26 0
2 4 26 0
-2 -4 -26 0
3 5 26 0
-3 -5 -26 0
1 4 25 0
-1 -4 -25 0
4 6 26 0
-4 -6 -26 0
2 5 25 0
-2 -5 -25 0
5 7 26 0
-5 -7 -26 0
3 6 25 0
-3 -6 -25 0
6 8 26 0
-6 -8 -26 0
4 7 25 0
-4 -7 -25 0
7 9 26 0
-7 -9 -26 0
5 8 25 0
-5 -8 -25 0
8 10 26 0
-8 -10 -26 0
1 9 24 0
-1 -9 -24 0
6 9 25 0
-6 -9 -25 0
9 11 26 0
-9 -11 -26 0
2 10 24 0
-2 -10 -24 0
7 10 25 0
-7 -10 -25 0
10 12 26 0
-10 -12 -26 0
3 11 24 0
-3 -11 -24 0
8 11 25 0
-8 -11 -25 0
11 13 26 0
-11 -13 -26 0
4 12 24 0
-4 -12 -24 0
9 12 25 0
-9 -12 -25 0
12 14 26 0
-12 -14 -26 0
5 13 24 0
-5 -13 -24 0
10 13 25 0
-10 -13 -25 0
13 15 26 0
-13 -15 -26 0
1 14 23 0
-1 -14 -23 0
6 14 24 0
-6 -14 -24 0
11 14 25 0
-11 -14 -25 0
14 16 26 0
-14 -16 -26 0
2 15 23 0
-2 -15 -23 0
7 15 24 0
-7 -15 -24 0
12 15 25 0
-12 -15 -25 0
15 17 26 0
-15 -17 -26 0
3 16 23 0
-3 -16 -23 0
8 16 24 0
-8 -16 -24 0
13 16 25 0
-13 -16 -25 0
16 18 26 0
-16 -18 -26 0
4 17 23 0
-4 -17 -23 0
9 17 24 0
-9 -17 -24 0
14 17 25 0
-14 -17 -25 0
17 19 26 0
-17 -19 -26 0
5 18 23 0
-5 -18 -23 0
10 18 24 0
-10 -18 -24 0
15 18 25 0
-15 -18 -25 0
18 20 26 0
-18 -20 -26 0
1 19 22 0
-1 -19 -22 0
6 19 23 0
-6 -19 -23 0
11 19 24 0
-11 -19 -24 0
16 19 25 0
-16 -19 -25 0
19 21 26 0
-19 -21 -26 0
2 20 22 0
-2 -20 -22 0
7 20 23 0
-7 -20 -23 0
12 20 24 0
-12 -20 -24 0
17 20 25 0
-17 -20 -25 0
20 22 26 0
-20 -22 -26 0
3 21 22 0
-3 -21 -22 0
8 21 23 0
-8 -21 -23 0
13 21 24 0
-13 -21 -24 0
18 21 25 0
-18 -21 -25 0
21 23 26 0
-21 -23 -26 0
4 22 0
-4 -22 0
9 22 23 0
-9 -22 -23 0
14 22 24 0
-14 -22 -24 0
19 22 25 0
-19 -22 -25 0
22 24 26 0
-22 -24 -26 0
5 22 23 0
-5 -22 -23 0
10 23 0
-10 -23 0
15 23 24 0
-15 -23 -24 0
20 23 25 0
-20 -23 -25 0
23 25 26 0
-23 -25 -26 0
1 21 24 0
-1 -21 -24 0
6 22 24 0
-6 -22 -24 0
11 23 24 0
-11 -23 -24 0
16 24 0
-16 -24 0
21 24 25 0
-21 -24 -25 0
24 26 0
-24 -26 0
2 21 25 0
-2 -21 -25 0
7 22 25 0
-7 -22 -25 0
12 23 25 0
-12 -23 -25 0
17 24 25 0
-17 -24 -25 0
22 25 0
-22 -25 0
3 21 26 0
-3 -21 -26 0
8 22 26 0
-8 -22 -26 0
13 23 26 0
-13 -23 -26 0
18 24 26 0
-18 -24 -26 0
