certificates/rado_a5_c128_N26.drat
-26 0
24 0
-16 0
14 0
18 0
-6 0
-22 0
-10 0
4 0
8 0
20 0
25 0
12 0
23 0
-7 0
0
